p ds 15 5
1 4
1 5
1 6
1 7
1 10
1 12
1 15
2 5
2 6
2 8
2 10
2 11
2 12
2 13
3 4
3 6
3 10
3 11
3 12
3 13
3 14
4 6
4 7
4 9
4 12
5 8
5 9
5 10
5 11
5 13
5 14
6 7
6 10
6 11
6 13
6 14
6 15
7 8
7 9
7 11
7 13
7 14
7 15
8 9
9 10
9 11
9 13
10 13
10 15
11 13
11 14
11 15
12 15
13 14
13 15
